(set-logic QF_UF)
(declare-fun A0 () Bool)
(declare-fun A1 () Bool)
(declare-fun A2 () Bool)
(declare-fun A3 () Bool)
(declare-fun A4 () Bool)
(declare-fun A5 () Bool)
(declare-fun A6 () Bool)
(declare-fun A7 () Bool)
(declare-fun A8 () Bool)
(declare-fun A9 () Bool)
(declare-fun A10 () Bool)
(declare-fun A11 () Bool)
(declare-fun A12 () Bool)
(declare-fun A13 () Bool)
(declare-fun A14 () Bool)
(declare-fun A15 () Bool)
(declare-fun A16 () Bool)
(declare-fun A17 () Bool)
(declare-fun A18 () Bool)
(declare-fun A19 () Bool)
(declare-fun A20 () Bool)
(declare-fun A21 () Bool)
(declare-fun A22 () Bool)
(declare-fun A23 () Bool)
(declare-fun A24 () Bool)
(assert (let ((.def_0 (or A16 A8))) (let ((.def_1 (not A12))) (let ((.def_2 (and A7 .def_1))) (let ((.def_3 (not .def_2))) (let ((.def_4 (and .def_3 .def_0))) (let ((.def_5 (not .def_4))) (let ((.def_6 (and A2 A0))) (let ((.def_7 (not A10))) (let ((.def_8 (not A11))) (let ((.def_9 (and .def_8 .def_7))) (let ((.def_10 (not .def_9))) (let ((.def_11 (= .def_10 .def_6))) (let ((.def_12 (or .def_11 .def_5))) (let ((.def_13 (= A6 A11))) (let ((.def_14 (not A24))) (let ((.def_15 (or A7 .def_14))) (let ((.def_16 (not .def_15))) (let ((.def_17 (and .def_16 .def_13))) (let ((.def_18 (not A6))) (let ((.def_19 (not A5))) (let ((.def_20 (or .def_19 .def_18))) (let ((.def_21 (not A1))) (let ((.def_22 (or .def_14 .def_21))) (let ((.def_23 (and .def_22 .def_20))) (let ((.def_24 (not .def_23))) (let ((.def_25 (and .def_24 .def_17))) (let ((.def_26 (or .def_25 .def_12))) (let ((.def_27 (not .def_26))) (let ((.def_28 (not A19))) (let ((.def_29 (and .def_28 A7))) (let ((.def_30 (and .def_19 A20))) (let ((.def_31 (not .def_30))) (let ((.def_32 (= .def_31 .def_29))) (let ((.def_33 (not .def_32))) (let ((.def_34 (or A24 .def_28))) (let ((.def_35 (not .def_34))) (let ((.def_36 (or A0 A17))) (let ((.def_37 (= .def_36 .def_35))) (let ((.def_38 (= .def_37 .def_33))) (let ((.def_39 (and A24 .def_21))) (let ((.def_40 (not .def_39))) (let ((.def_41 (not A4))) (let ((.def_42 (and .def_41 A18))) (let ((.def_43 (not .def_42))) (let ((.def_44 (or .def_43 .def_40))) (let ((.def_45 (not A20))) (let ((.def_46 (and .def_21 .def_45))) (let ((.def_47 (not A0))) (let ((.def_48 (= .def_41 .def_47))) (let ((.def_49 (or .def_48 .def_46))) (let ((.def_50 (or .def_49 .def_44))) (let ((.def_51 (not .def_50))) (let ((.def_52 (and .def_51 .def_38))) (let ((.def_53 (or .def_52 .def_27))) (let ((.def_54 (or A9 A21))) (let ((.def_55 (not .def_54))) (let ((.def_56 (or A12 .def_47))) (let ((.def_57 (and .def_56 .def_55))) (let ((.def_58 (or A9 .def_7))) (let ((.def_59 (not .def_58))) (let ((.def_60 (not A14))) (let ((.def_61 (and A22 .def_60))) (let ((.def_62 (and .def_61 .def_59))) (let ((.def_63 (not .def_62))) (let ((.def_64 (or .def_63 .def_57))) (let ((.def_65 (not .def_64))) (let ((.def_66 (not A21))) (let ((.def_67 (or A9 .def_66))) (let ((.def_68 (not .def_67))) (let ((.def_69 (or A16 A9))) (let ((.def_70 (or .def_69 .def_68))) (let ((.def_71 (not .def_70))) (let ((.def_72 (and A9 A13))) (let ((.def_73 (not .def_72))) (let ((.def_74 (and A10 .def_41))) (let ((.def_75 (or .def_74 .def_73))) (let ((.def_76 (not .def_75))) (let ((.def_77 (or .def_76 .def_71))) (let ((.def_78 (or .def_77 .def_65))) (let ((.def_79 (not A8))) (let ((.def_80 (or .def_79 A9))) (let ((.def_81 (or A23 .def_28))) (let ((.def_82 (= .def_81 .def_80))) (let ((.def_83 (not .def_82))) (let ((.def_84 (not A15))) (let ((.def_85 (or A9 .def_84))) (let ((.def_86 (not .def_85))) (let ((.def_87 (or A6 A1))) (let ((.def_88 (not .def_87))) (let ((.def_89 (= .def_88 .def_86))) (let ((.def_90 (not .def_89))) (let ((.def_91 (or .def_90 .def_83))) (let ((.def_92 (not .def_91))) (let ((.def_93 (and A16 .def_66))) (let ((.def_94 (or A19 A20))) (let ((.def_95 (= .def_94 .def_93))) (let ((.def_96 (not A7))) (let ((.def_97 (or .def_96 A4))) (let ((.def_98 (or A12 A1))) (let ((.def_99 (not .def_98))) (let ((.def_100 (and .def_99 .def_97))) (let ((.def_101 (not .def_100))) (let ((.def_102 (= .def_101 .def_95))) (let ((.def_103 (not .def_102))) (let ((.def_104 (and .def_103 .def_92))) (let ((.def_105 (or .def_104 .def_78))) (let ((.def_106 (not .def_105))) (let ((.def_107 (= .def_106 .def_53))) (let ((.def_108 (not .def_107))) (let ((.def_109 (or .def_7 .def_21))) (let ((.def_110 (= A12 .def_96))) (let ((.def_111 (= .def_110 .def_109))) (let ((.def_112 (not A22))) (let ((.def_113 (and A13 .def_112))) (let ((.def_114 (= .def_19 A9))) (let ((.def_115 (= .def_114 .def_113))) (let ((.def_116 (and .def_115 .def_111))) (let ((.def_117 (or .def_18 A6))) (let ((.def_118 (not A2))) (let ((.def_119 (or .def_118 A2))) (let ((.def_120 (and .def_119 .def_117))) (let ((.def_121 (and .def_28 .def_18))) (let ((.def_122 (not .def_121))) (let ((.def_123 (and A8 A1))) (let ((.def_124 (and .def_123 .def_122))) (let ((.def_125 (= .def_124 .def_120))) (let ((.def_126 (or .def_125 .def_116))) (let ((.def_127 (or .def_1 .def_41))) (let ((.def_128 (not .def_127))) (let ((.def_129 (not A16))) (let ((.def_130 (or .def_8 .def_129))) (let ((.def_131 (not .def_130))) (let ((.def_132 (or .def_131 .def_128))) (let ((.def_133 (and A14 A4))) (let ((.def_134 (not A3))) (let ((.def_135 (or A1 .def_134))) (let ((.def_136 (or .def_135 .def_133))) (let ((.def_137 (and .def_136 .def_132))) (let ((.def_138 (and .def_79 A3))) (let ((.def_139 (not .def_138))) (let ((.def_140 (and A8 A7))) (let ((.def_141 (or .def_140 .def_139))) (let ((.def_142 (not A9))) (let ((.def_143 (or .def_142 .def_14))) (let ((.def_144 (and A16 A23))) (let ((.def_145 (and .def_144 .def_143))) (let ((.def_146 (not .def_145))) (let ((.def_147 (and .def_146 .def_141))) (let ((.def_148 (not .def_147))) (let ((.def_149 (or .def_148 .def_137))) (let ((.def_150 (not .def_149))) (let ((.def_151 (or .def_150 .def_126))) (let ((.def_152 (not .def_151))) (let ((.def_153 (and .def_7 .def_8))) (let ((.def_154 (or A22 A13))) (let ((.def_155 (and .def_154 .def_153))) (let ((.def_156 (not A18))) (let ((.def_157 (or .def_112 .def_156))) (let ((.def_158 (and .def_1 .def_84))) (let ((.def_159 (and .def_158 .def_157))) (let ((.def_160 (and .def_159 .def_155))) (let ((.def_161 (or A4 A3))) (let ((.def_162 (not .def_161))) (let ((.def_163 (and A23 .def_79))) (let ((.def_164 (= .def_163 .def_162))) (let ((.def_165 (not .def_164))) (let ((.def_166 (and A15 A24))) (let ((.def_167 (and A6 A22))) (let ((.def_168 (not .def_167))) (let ((.def_169 (or .def_168 .def_166))) (let ((.def_170 (not .def_169))) (let ((.def_171 (and .def_170 .def_165))) (let ((.def_172 (not .def_171))) (let ((.def_173 (or .def_172 .def_160))) (let ((.def_174 (not .def_173))) (let ((.def_175 (and .def_45 A19))) (let ((.def_176 (or .def_7 .def_142))) (let ((.def_177 (not .def_176))) (let ((.def_178 (or .def_177 .def_175))) (let ((.def_179 (not A13))) (let ((.def_180 (not A17))) (let ((.def_181 (and .def_180 .def_179))) (let ((.def_182 (or .def_134 .def_14))) (let ((.def_183 (or .def_182 .def_181))) (let ((.def_184 (or .def_183 .def_178))) (let ((.def_185 (not .def_184))) (let ((.def_186 (and .def_179 A10))) (let ((.def_187 (not .def_186))) (let ((.def_188 (or .def_112 A12))) (let ((.def_189 (or .def_188 .def_187))) (let ((.def_190 (not .def_189))) (let ((.def_191 (= A20 .def_84))) (let ((.def_192 (or .def_7 .def_79))) (let ((.def_193 (and .def_192 .def_191))) (let ((.def_194 (not .def_193))) (let ((.def_195 (and .def_194 .def_190))) (let ((.def_196 (not .def_195))) (let ((.def_197 (or .def_196 .def_185))) (let ((.def_198 (and .def_197 .def_174))) (let ((.def_199 (= .def_198 .def_152))) (let ((.def_200 (= .def_199 .def_108))) (let ((.def_201 (not .def_200))) (let ((.def_202 (and A21 A3))) (let ((.def_203 (not .def_202))) (let ((.def_204 (or .def_14 A5))) (let ((.def_205 (not .def_204))) (let ((.def_206 (and .def_205 .def_203))) (let ((.def_207 (and A11 A17))) (let ((.def_208 (and .def_118 .def_129))) (let ((.def_209 (or .def_208 .def_207))) (let ((.def_210 (not .def_209))) (let ((.def_211 (= .def_210 .def_206))) (let ((.def_212 (and A13 A20))) (let ((.def_213 (or .def_21 .def_14))) (let ((.def_214 (and .def_213 .def_212))) (let ((.def_215 (not .def_214))) (let ((.def_216 (or .def_118 .def_21))) (let ((.def_217 (not .def_216))) (let ((.def_218 (or A1 .def_41))) (let ((.def_219 (and .def_218 .def_217))) (let ((.def_220 (not .def_219))) (let ((.def_221 (or .def_220 .def_215))) (let ((.def_222 (not .def_221))) (let ((.def_223 (and .def_222 .def_211))) (let ((.def_224 (not .def_223))) (let ((.def_225 (or A16 .def_96))) (let ((.def_226 (not .def_225))) (let ((.def_227 (and A11 A3))) (let ((.def_228 (not .def_227))) (let ((.def_229 (and .def_228 .def_226))) (let ((.def_230 (not .def_229))) (let ((.def_231 (or A16 A2))) (let ((.def_232 (not .def_231))) (let ((.def_233 (or .def_179 .def_118))) (let ((.def_234 (not .def_233))) (let ((.def_235 (or .def_234 .def_232))) (let ((.def_236 (not .def_235))) (let ((.def_237 (and .def_236 .def_230))) (let ((.def_238 (not .def_237))) (let ((.def_239 (or .def_156 .def_60))) (let ((.def_240 (or .def_7 A14))) (let ((.def_241 (and .def_240 .def_239))) (let ((.def_242 (or A16 A17))) (let ((.def_243 (or A4 .def_112))) (let ((.def_244 (not .def_243))) (let ((.def_245 (or .def_244 .def_242))) (let ((.def_246 (not .def_245))) (let ((.def_247 (= .def_246 .def_241))) (let ((.def_248 (not .def_247))) (let ((.def_249 (or .def_248 .def_238))) (let ((.def_250 (not .def_249))) (let ((.def_251 (and .def_250 .def_224))) (let ((.def_252 (and .def_7 .def_47))) (let ((.def_253 (and A13 A11))) (let ((.def_254 (and .def_253 .def_252))) (let ((.def_255 (not .def_254))) (let ((.def_256 (= .def_19 .def_8))) (let ((.def_257 (and .def_134 A14))) (let ((.def_258 (or .def_257 .def_256))) (let ((.def_259 (or .def_258 .def_255))) (let ((.def_260 (and A19 A1))) (let ((.def_261 (not .def_260))) (let ((.def_262 (and .def_134 .def_14))) (let ((.def_263 (not .def_262))) (let ((.def_264 (or .def_263 .def_261))) (let ((.def_265 (or A18 A24))) (let ((.def_266 (not .def_265))) (let ((.def_267 (or .def_112 .def_7))) (let ((.def_268 (not .def_267))) (let ((.def_269 (or .def_268 .def_266))) (let ((.def_270 (or .def_269 .def_264))) (let ((.def_271 (not .def_270))) (let ((.def_272 (or .def_271 .def_259))) (let ((.def_273 (and A18 .def_18))) (let ((.def_274 (not .def_273))) (let ((.def_275 (and A24 A24))) (let ((.def_276 (and .def_275 .def_274))) (let ((.def_277 (not .def_276))) (let ((.def_278 (and .def_28 A2))) (let ((.def_279 (not .def_278))) (let ((.def_280 (and A23 .def_60))) (let ((.def_281 (or .def_280 .def_279))) (let ((.def_282 (not .def_281))) (let ((.def_283 (or .def_282 .def_277))) (let ((.def_284 (not .def_283))) (let ((.def_285 (and .def_60 A17))) (let ((.def_286 (and .def_118 .def_134))) (let ((.def_287 (or .def_286 .def_285))) (let ((.def_288 (not .def_287))) (let ((.def_289 (or .def_45 A18))) (let ((.def_290 (or .def_84 .def_180))) (let ((.def_291 (and .def_290 .def_289))) (let ((.def_292 (= .def_291 .def_288))) (let ((.def_293 (= .def_292 .def_284))) (let ((.def_294 (and .def_293 .def_272))) (let ((.def_295 (not .def_294))) (let ((.def_296 (= .def_295 .def_251))) (let ((.def_297 (and A9 A14))) (let ((.def_298 (not .def_297))) (let ((.def_299 (or A18 .def_60))) (let ((.def_300 (= .def_299 .def_298))) (let ((.def_301 (or .def_79 A22))) (let ((.def_302 (not .def_301))) (let ((.def_303 (and A2 .def_79))) (let ((.def_304 (or .def_303 .def_302))) (let ((.def_305 (or .def_304 .def_300))) (let ((.def_306 (not .def_305))) (let ((.def_307 (and A20 A9))) (let ((.def_308 (not .def_307))) (let ((.def_309 (and A0 A19))) (let ((.def_310 (not .def_309))) (let ((.def_311 (= .def_310 .def_308))) (let ((.def_312 (= .def_47 A22))) (let ((.def_313 (and A14 .def_7))) (let ((.def_314 (not .def_313))) (let ((.def_315 (or .def_314 .def_312))) (let ((.def_316 (not .def_315))) (let ((.def_317 (= .def_316 .def_311))) (let ((.def_318 (or .def_317 .def_306))) (let ((.def_319 (not .def_318))) (let ((.def_320 (or .def_180 A24))) (let ((.def_321 (or A12 .def_18))) (let ((.def_322 (not .def_321))) (let ((.def_323 (or .def_322 .def_320))) (let ((.def_324 (or A14 A21))) (let ((.def_325 (not .def_324))) (let ((.def_326 (or A13 .def_7))) (let ((.def_327 (not .def_326))) (let ((.def_328 (or .def_327 .def_325))) (let ((.def_329 (not .def_328))) (let ((.def_330 (or .def_329 .def_323))) (let ((.def_331 (not .def_330))) (let ((.def_332 (= A21 A19))) (let ((.def_333 (not .def_332))) (let ((.def_334 (and A1 A17))) (let ((.def_335 (not .def_334))) (let ((.def_336 (and .def_335 .def_333))) (let ((.def_337 (not .def_336))) (let ((.def_338 (or .def_134 A21))) (let ((.def_339 (not .def_338))) (let ((.def_340 (and .def_66 A3))) (let ((.def_341 (not .def_340))) (let ((.def_342 (or .def_341 .def_339))) (let ((.def_343 (or .def_342 .def_337))) (let ((.def_344 (and .def_343 .def_331))) (let ((.def_345 (= .def_344 .def_319))) (let ((.def_346 (not .def_345))) (let ((.def_347 (and A11 A16))) (let ((.def_348 (not .def_347))) (let ((.def_349 (and A10 .def_96))) (let ((.def_350 (or .def_349 .def_348))) (let ((.def_351 (not .def_350))) (let ((.def_352 (or .def_66 .def_41))) (let ((.def_353 (not .def_352))) (let ((.def_354 (and .def_96 A21))) (let ((.def_355 (or .def_354 .def_353))) (let ((.def_356 (or .def_355 .def_351))) (let ((.def_357 (or .def_21 A2))) (let ((.def_358 (not .def_357))) (let ((.def_359 (not A23))) (let ((.def_360 (or A11 .def_359))) (let ((.def_361 (and .def_360 .def_358))) (let ((.def_362 (= .def_79 A6))) (let ((.def_363 (and A16 .def_14))) (let ((.def_364 (not .def_363))) (let ((.def_365 (and .def_364 .def_362))) (let ((.def_366 (and .def_365 .def_361))) (let ((.def_367 (and .def_366 .def_356))) (let ((.def_368 (not .def_367))) (let ((.def_369 (or .def_129 A5))) (let ((.def_370 (not .def_369))) (let ((.def_371 (= .def_134 .def_28))) (let ((.def_372 (not .def_371))) (let ((.def_373 (or .def_372 .def_370))) (let ((.def_374 (and A19 .def_41))) (let ((.def_375 (or A19 .def_134))) (let ((.def_376 (not .def_375))) (let ((.def_377 (and .def_376 .def_374))) (let ((.def_378 (or .def_377 .def_373))) (let ((.def_379 (and .def_112 A8))) (let ((.def_380 (and .def_14 A11))) (let ((.def_381 (not .def_380))) (let ((.def_382 (and .def_381 .def_379))) (let ((.def_383 (not .def_382))) (let ((.def_384 (or A24 A10))) (let ((.def_385 (or .def_60 A1))) (let ((.def_386 (and .def_385 .def_384))) (let ((.def_387 (not .def_386))) (let ((.def_388 (and .def_387 .def_383))) (let ((.def_389 (or .def_388 .def_378))) (let ((.def_390 (not .def_389))) (let ((.def_391 (or .def_390 .def_368))) (let ((.def_392 (not .def_391))) (let ((.def_393 (and .def_392 .def_346))) (let ((.def_394 (and .def_393 .def_296))) (let ((.def_395 (not .def_394))) (let ((.def_396 (or .def_395 .def_201))) (let ((.def_397 (not .def_396))) .def_397)))))))))))))))))))))))))))))))))))))))))))))))))))))))))))))))))))))))))))))))))))))))))))))))))))))))))))))))))))))))))))))))))))))))))))))))))))))))))))))))))))))))))))))))))))))))))))))))))))))))))))))))))))))))))))))))))))))))))))))))))))))))))))))))))))))))))))))))))))))))))))))))))))))))))))))))))))))))))))))))))))))))))))))))))))))))))))))))))))))))))))))))))))))))))))))))))))))))))))))))
(check-sat)
